c Standarized MaxSat Instance
c{
c "sha1sum": "f6b91773059abff61d465b40991c56760576c28a",
c "nvars": 60,
c "ncls": 1120,
c "nhards": 0,
c "nhard_len_stats":
c    { "min": 0, "max": 0, "ave": 0.00,
c      "stddev": 0.00 },
c "nsofts": 1120,
c "nsoft_len_stats":
c    { "min": 2, "max": 2, "ave": 2.00,
c      "stddev": 0.00 },
c "nsoft_wts": 10,
c "soft_wt_stats":
c    { "min": 1, "max": 10, "ave": 5.65,
c      "stddev": 2.81 }
c}
c------------------------------------------------------------
c Generated after 1 tries
c Graph with 60 nodes and 560 edges, Max edges:1770
p wcnf 60 1120 6331
9 1 10 0
9 -1 -10 0
4 1 13 0
4 -1 -13 0
8 1 14 0
8 -1 -14 0
8 1 15 0
8 -1 -15 0
10 1 16 0
10 -1 -16 0
2 1 20 0
2 -1 -20 0
4 1 24 0
4 -1 -24 0
8 1 27 0
8 -1 -27 0
3 1 31 0
3 -1 -31 0
6 1 38 0
6 -1 -38 0
5 1 40 0
5 -1 -40 0
7 1 46 0
7 -1 -46 0
4 1 52 0
4 -1 -52 0
6 2 3 0
6 -2 -3 0
10 2 4 0
10 -2 -4 0
10 2 5 0
10 -2 -5 0
7 2 6 0
7 -2 -6 0
8 2 11 0
8 -2 -11 0
2 2 12 0
2 -2 -12 0
7 2 13 0
7 -2 -13 0
1 2 15 0
1 -2 -15 0
3 2 22 0
3 -2 -22 0
2 2 27 0
2 -2 -27 0
9 2 29 0
9 -2 -29 0
2 2 31 0
2 -2 -31 0
5 2 32 0
5 -2 -32 0
2 2 33 0
2 -2 -33 0
2 2 37 0
2 -2 -37 0
10 2 39 0
10 -2 -39 0
3 2 43 0
3 -2 -43 0
6 2 46 0
6 -2 -46 0
9 2 48 0
9 -2 -48 0
7 2 53 0
7 -2 -53 0
3 2 56 0
3 -2 -56 0
7 2 58 0
7 -2 -58 0
6 2 60 0
6 -2 -60 0
5 3 4 0
5 -3 -4 0
10 3 6 0
10 -3 -6 0
3 3 9 0
3 -3 -9 0
8 3 11 0
8 -3 -11 0
6 3 13 0
6 -3 -13 0
8 3 14 0
8 -3 -14 0
5 3 15 0
5 -3 -15 0
9 3 29 0
9 -3 -29 0
3 3 40 0
3 -3 -40 0
4 3 43 0
4 -3 -43 0
9 3 46 0
9 -3 -46 0
10 3 51 0
10 -3 -51 0
1 4 5 0
1 -4 -5 0
10 4 6 0
10 -4 -6 0
6 4 10 0
6 -4 -10 0
1 4 12 0
1 -4 -12 0
2 4 13 0
2 -4 -13 0
7 4 15 0
7 -4 -15 0
9 4 17 0
9 -4 -17 0
4 4 18 0
4 -4 -18 0
1 4 24 0
1 -4 -24 0
1 4 38 0
1 -4 -38 0
5 4 39 0
5 -4 -39 0
1 4 42 0
1 -4 -42 0
3 4 45 0
3 -4 -45 0
10 4 48 0
10 -4 -48 0
10 4 50 0
10 -4 -50 0
9 4 57 0
9 -4 -57 0
3 4 60 0
3 -4 -60 0
6 5 6 0
6 -5 -6 0
4 5 7 0
4 -5 -7 0
8 5 14 0
8 -5 -14 0
6 5 16 0
6 -5 -16 0
7 5 24 0
7 -5 -24 0
6 5 28 0
6 -5 -28 0
1 5 31 0
1 -5 -31 0
5 5 32 0
5 -5 -32 0
10 5 34 0
10 -5 -34 0
10 5 35 0
10 -5 -35 0
8 5 36 0
8 -5 -36 0
3 5 38 0
3 -5 -38 0
8 5 46 0
8 -5 -46 0
7 5 47 0
7 -5 -47 0
4 5 50 0
4 -5 -50 0
7 5 53 0
7 -5 -53 0
2 5 59 0
2 -5 -59 0
5 6 12 0
5 -6 -12 0
9 6 13 0
9 -6 -13 0
9 6 16 0
9 -6 -16 0
4 6 17 0
4 -6 -17 0
3 6 22 0
3 -6 -22 0
9 6 27 0
9 -6 -27 0
4 6 33 0
4 -6 -33 0
7 6 34 0
7 -6 -34 0
10 6 38 0
10 -6 -38 0
6 6 44 0
6 -6 -44 0
7 6 51 0
7 -6 -51 0
9 6 59 0
9 -6 -59 0
5 7 9 0
5 -7 -9 0
10 7 20 0
10 -7 -20 0
4 7 21 0
4 -7 -21 0
9 7 22 0
9 -7 -22 0
7 7 28 0
7 -7 -28 0
10 7 29 0
10 -7 -29 0
5 7 32 0
5 -7 -32 0
3 7 39 0
3 -7 -39 0
10 7 41 0
10 -7 -41 0
10 7 42 0
10 -7 -42 0
2 7 44 0
2 -7 -44 0
9 7 46 0
9 -7 -46 0
7 7 48 0
7 -7 -48 0
5 7 49 0
5 -7 -49 0
7 7 50 0
7 -7 -50 0
3 7 52 0
3 -7 -52 0
8 8 19 0
8 -8 -19 0
4 8 22 0
4 -8 -22 0
5 8 24 0
5 -8 -24 0
3 8 25 0
3 -8 -25 0
2 8 29 0
2 -8 -29 0
3 8 31 0
3 -8 -31 0
6 8 32 0
6 -8 -32 0
5 8 37 0
5 -8 -37 0
2 8 46 0
2 -8 -46 0
10 8 48 0
10 -8 -48 0
2 8 49 0
2 -8 -49 0
2 8 51 0
2 -8 -51 0
5 8 56 0
5 -8 -56 0
8 8 59 0
8 -8 -59 0
10 9 15 0
10 -9 -15 0
10 9 16 0
10 -9 -16 0
7 9 19 0
7 -9 -19 0
4 9 20 0
4 -9 -20 0
8 9 23 0
8 -9 -23 0
4 9 26 0
4 -9 -26 0
3 9 29 0
3 -9 -29 0
3 9 31 0
3 -9 -31 0
6 9 32 0
6 -9 -32 0
3 9 37 0
3 -9 -37 0
2 9 43 0
2 -9 -43 0
8 9 44 0
8 -9 -44 0
2 9 45 0
2 -9 -45 0
8 9 48 0
8 -9 -48 0
2 9 51 0
2 -9 -51 0
8 9 60 0
8 -9 -60 0
1 10 17 0
1 -10 -17 0
10 10 18 0
10 -10 -18 0
1 10 22 0
1 -10 -22 0
6 10 23 0
6 -10 -23 0
2 10 25 0
2 -10 -25 0
3 10 33 0
3 -10 -33 0
8 10 34 0
8 -10 -34 0
8 10 36 0
8 -10 -36 0
7 10 38 0
7 -10 -38 0
10 10 40 0
10 -10 -40 0
7 10 45 0
7 -10 -45 0
8 10 47 0
8 -10 -47 0
1 10 49 0
1 -10 -49 0
2 10 50 0
2 -10 -50 0
6 10 53 0
6 -10 -53 0
1 10 57 0
1 -10 -57 0
1 10 59 0
1 -10 -59 0
3 11 15 0
3 -11 -15 0
5 11 17 0
5 -11 -17 0
9 11 20 0
9 -11 -20 0
6 11 23 0
6 -11 -23 0
8 11 25 0
8 -11 -25 0
1 11 28 0
1 -11 -28 0
2 11 32 0
2 -11 -32 0
10 11 33 0
10 -11 -33 0
3 11 35 0
3 -11 -35 0
9 11 37 0
9 -11 -37 0
2 11 38 0
2 -11 -38 0
10 11 44 0
10 -11 -44 0
1 11 47 0
1 -11 -47 0
9 11 51 0
9 -11 -51 0
1 11 52 0
1 -11 -52 0
1 11 53 0
1 -11 -53 0
10 11 55 0
10 -11 -55 0
6 11 58 0
6 -11 -58 0
2 11 59 0
2 -11 -59 0
2 12 13 0
2 -12 -13 0
4 12 15 0
4 -12 -15 0
10 12 17 0
10 -12 -17 0
9 12 20 0
9 -12 -20 0
4 12 21 0
4 -12 -21 0
6 12 24 0
6 -12 -24 0
6 12 27 0
6 -12 -27 0
5 12 32 0
5 -12 -32 0
7 12 33 0
7 -12 -33 0
1 12 34 0
1 -12 -34 0
6 12 35 0
6 -12 -35 0
8 12 37 0
8 -12 -37 0
4 12 43 0
4 -12 -43 0
10 12 47 0
10 -12 -47 0
6 12 49 0
6 -12 -49 0
9 12 50 0
9 -12 -50 0
8 13 21 0
8 -13 -21 0
7 13 22 0
7 -13 -22 0
1 13 30 0
1 -13 -30 0
8 13 33 0
8 -13 -33 0
9 13 36 0
9 -13 -36 0
10 13 40 0
10 -13 -40 0
9 13 42 0
9 -13 -42 0
9 13 43 0
9 -13 -43 0
10 13 45 0
10 -13 -45 0
8 13 46 0
8 -13 -46 0
10 13 49 0
10 -13 -49 0
10 13 54 0
10 -13 -54 0
7 13 55 0
7 -13 -55 0
5 13 58 0
5 -13 -58 0
2 13 59 0
2 -13 -59 0
9 14 16 0
9 -14 -16 0
9 14 19 0
9 -14 -19 0
1 14 30 0
1 -14 -30 0
7 14 33 0
7 -14 -33 0
3 14 35 0
3 -14 -35 0
7 14 42 0
7 -14 -42 0
3 14 46 0
3 -14 -46 0
8 14 48 0
8 -14 -48 0
4 14 53 0
4 -14 -53 0
4 14 55 0
4 -14 -55 0
3 15 19 0
3 -15 -19 0
1 15 23 0
1 -15 -23 0
7 15 25 0
7 -15 -25 0
3 15 28 0
3 -15 -28 0
7 15 31 0
7 -15 -31 0
6 15 32 0
6 -15 -32 0
10 15 46 0
10 -15 -46 0
3 15 48 0
3 -15 -48 0
6 15 55 0
6 -15 -55 0
8 16 18 0
8 -16 -18 0
2 16 19 0
2 -16 -19 0
5 16 21 0
5 -16 -21 0
6 16 30 0
6 -16 -30 0
10 16 33 0
10 -16 -33 0
5 16 40 0
5 -16 -40 0
4 16 43 0
4 -16 -43 0
9 16 46 0
9 -16 -46 0
5 16 47 0
5 -16 -47 0
1 16 48 0
1 -16 -48 0
4 16 52 0
4 -16 -52 0
6 16 59 0
6 -16 -59 0
9 17 22 0
9 -17 -22 0
3 17 23 0
3 -17 -23 0
7 17 24 0
7 -17 -24 0
5 17 30 0
5 -17 -30 0
5 17 31 0
5 -17 -31 0
4 17 34 0
4 -17 -34 0
8 17 37 0
8 -17 -37 0
2 17 42 0
2 -17 -42 0
7 17 48 0
7 -17 -48 0
1 17 50 0
1 -17 -50 0
5 17 55 0
5 -17 -55 0
7 17 56 0
7 -17 -56 0
7 17 58 0
7 -17 -58 0
7 17 59 0
7 -17 -59 0
4 17 60 0
4 -17 -60 0
2 18 19 0
2 -18 -19 0
7 18 21 0
7 -18 -21 0
7 18 23 0
7 -18 -23 0
8 18 33 0
8 -18 -33 0
4 18 35 0
4 -18 -35 0
8 18 39 0
8 -18 -39 0
3 18 49 0
3 -18 -49 0
10 18 53 0
10 -18 -53 0
7 18 59 0
7 -18 -59 0
7 18 60 0
7 -18 -60 0
3 19 20 0
3 -19 -20 0
6 19 26 0
6 -19 -26 0
1 19 27 0
1 -19 -27 0
3 19 28 0
3 -19 -28 0
9 19 31 0
9 -19 -31 0
7 19 34 0
7 -19 -34 0
1 19 35 0
1 -19 -35 0
2 19 36 0
2 -19 -36 0
4 19 40 0
4 -19 -40 0
6 19 41 0
6 -19 -41 0
6 19 42 0
6 -19 -42 0
7 19 49 0
7 -19 -49 0
3 19 50 0
3 -19 -50 0
8 19 51 0
8 -19 -51 0
3 19 53 0
3 -19 -53 0
4 19 54 0
4 -19 -54 0
2 19 58 0
2 -19 -58 0
10 19 59 0
10 -19 -59 0
1 19 60 0
1 -19 -60 0
9 20 22 0
9 -20 -22 0
4 20 28 0
4 -20 -28 0
2 20 31 0
2 -20 -31 0
5 20 35 0
5 -20 -35 0
10 20 36 0
10 -20 -36 0
10 20 42 0
10 -20 -42 0
8 20 44 0
8 -20 -44 0
7 20 45 0
7 -20 -45 0
2 20 48 0
2 -20 -48 0
7 20 50 0
7 -20 -50 0
4 20 52 0
4 -20 -52 0
8 20 56 0
8 -20 -56 0
10 21 25 0
10 -21 -25 0
10 21 32 0
10 -21 -32 0
9 21 34 0
9 -21 -34 0
3 21 36 0
3 -21 -36 0
8 21 40 0
8 -21 -40 0
6 21 42 0
6 -21 -42 0
3 21 51 0
3 -21 -51 0
10 21 52 0
10 -21 -52 0
10 21 53 0
10 -21 -53 0
9 21 55 0
9 -21 -55 0
5 21 56 0
5 -21 -56 0
6 21 57 0
6 -21 -57 0
2 21 58 0
2 -21 -58 0
3 21 60 0
3 -21 -60 0
9 22 24 0
9 -22 -24 0
5 22 29 0
5 -22 -29 0
5 22 33 0
5 -22 -33 0
9 22 34 0
9 -22 -34 0
5 22 35 0
5 -22 -35 0
3 22 36 0
3 -22 -36 0
2 22 37 0
2 -22 -37 0
7 22 38 0
7 -22 -38 0
8 22 39 0
8 -22 -39 0
2 22 41 0
2 -22 -41 0
7 22 44 0
7 -22 -44 0
5 22 49 0
5 -22 -49 0
9 22 50 0
9 -22 -50 0
8 22 51 0
8 -22 -51 0
2 22 54 0
2 -22 -54 0
3 22 59 0
3 -22 -59 0
5 23 32 0
5 -23 -32 0
2 23 34 0
2 -23 -34 0
2 23 37 0
2 -23 -37 0
4 23 40 0
4 -23 -40 0
4 23 43 0
4 -23 -43 0
10 23 46 0
10 -23 -46 0
10 23 47 0
10 -23 -47 0
7 23 49 0
7 -23 -49 0
9 23 52 0
9 -23 -52 0
9 23 54 0
9 -23 -54 0
5 23 55 0
5 -23 -55 0
4 23 57 0
4 -23 -57 0
4 23 59 0
4 -23 -59 0
7 23 60 0
7 -23 -60 0
7 24 26 0
7 -24 -26 0
3 24 27 0
3 -24 -27 0
2 24 33 0
2 -24 -33 0
1 24 34 0
1 -24 -34 0
2 24 38 0
2 -24 -38 0
7 24 40 0
7 -24 -40 0
4 24 42 0
4 -24 -42 0
3 24 43 0
3 -24 -43 0
4 24 44 0
4 -24 -44 0
1 24 45 0
1 -24 -45 0
5 24 51 0
5 -24 -51 0
10 24 53 0
10 -24 -53 0
6 24 56 0
6 -24 -56 0
3 25 26 0
3 -25 -26 0
7 25 27 0
7 -25 -27 0
8 25 30 0
8 -25 -30 0
5 25 31 0
5 -25 -31 0
2 25 32 0
2 -25 -32 0
9 25 36 0
9 -25 -36 0
7 25 38 0
7 -25 -38 0
6 25 44 0
6 -25 -44 0
3 25 46 0
3 -25 -46 0
6 25 47 0
6 -25 -47 0
5 25 49 0
5 -25 -49 0
9 25 51 0
9 -25 -51 0
4 25 53 0
4 -25 -53 0
3 25 55 0
3 -25 -55 0
4 25 60 0
4 -25 -60 0
8 26 27 0
8 -26 -27 0
7 26 31 0
7 -26 -31 0
10 26 35 0
10 -26 -35 0
4 26 40 0
4 -26 -40 0
9 26 46 0
9 -26 -46 0
2 26 50 0
2 -26 -50 0
5 26 51 0
5 -26 -51 0
1 26 52 0
1 -26 -52 0
8 26 56 0
8 -26 -56 0
8 26 57 0
8 -26 -57 0
3 27 30 0
3 -27 -30 0
2 27 31 0
2 -27 -31 0
9 27 34 0
9 -27 -34 0
8 27 39 0
8 -27 -39 0
1 27 42 0
1 -27 -42 0
5 27 43 0
5 -27 -43 0
10 27 45 0
10 -27 -45 0
8 27 46 0
8 -27 -46 0
3 27 49 0
3 -27 -49 0
5 27 50 0
5 -27 -50 0
9 27 53 0
9 -27 -53 0
1 27 56 0
1 -27 -56 0
1 27 57 0
1 -27 -57 0
4 27 59 0
4 -27 -59 0
4 28 32 0
4 -28 -32 0
7 28 34 0
7 -28 -34 0
9 28 35 0
9 -28 -35 0
2 28 36 0
2 -28 -36 0
1 28 42 0
1 -28 -42 0
1 28 45 0
1 -28 -45 0
5 28 59 0
5 -28 -59 0
8 28 60 0
8 -28 -60 0
7 29 30 0
7 -29 -30 0
5 29 33 0
5 -29 -33 0
2 29 36 0
2 -29 -36 0
6 29 37 0
6 -29 -37 0
6 29 39 0
6 -29 -39 0
6 29 42 0
6 -29 -42 0
6 29 43 0
6 -29 -43 0
4 29 47 0
4 -29 -47 0
4 29 49 0
4 -29 -49 0
9 29 53 0
9 -29 -53 0
5 29 54 0
5 -29 -54 0
2 29 57 0
2 -29 -57 0
7 30 31 0
7 -30 -31 0
6 30 34 0
6 -30 -34 0
7 30 35 0
7 -30 -35 0
6 30 40 0
6 -30 -40 0
3 30 41 0
3 -30 -41 0
9 30 42 0
9 -30 -42 0
1 30 43 0
1 -30 -43 0
1 30 51 0
1 -30 -51 0
10 30 52 0
10 -30 -52 0
2 30 53 0
2 -30 -53 0
5 30 57 0
5 -30 -57 0
3 31 32 0
3 -31 -32 0
9 31 33 0
9 -31 -33 0
3 31 37 0
3 -31 -37 0
4 31 39 0
4 -31 -39 0
9 31 41 0
9 -31 -41 0
4 31 44 0
4 -31 -44 0
9 31 54 0
9 -31 -54 0
7 31 59 0
7 -31 -59 0
1 31 60 0
1 -31 -60 0
3 32 33 0
3 -32 -33 0
8 32 36 0
8 -32 -36 0
7 32 37 0
7 -32 -37 0
9 32 44 0
9 -32 -44 0
4 32 46 0
4 -32 -46 0
3 32 48 0
3 -32 -48 0
2 32 59 0
2 -32 -59 0
7 33 36 0
7 -33 -36 0
2 33 40 0
2 -33 -40 0
7 33 49 0
7 -33 -49 0
8 33 51 0
8 -33 -51 0
8 33 54 0
8 -33 -54 0
3 33 56 0
3 -33 -56 0
5 33 58 0
5 -33 -58 0
4 34 36 0
4 -34 -36 0
5 34 40 0
5 -34 -40 0
3 34 41 0
3 -34 -41 0
4 34 42 0
4 -34 -42 0
6 34 48 0
6 -34 -48 0
2 34 49 0
2 -34 -49 0
6 34 51 0
6 -34 -51 0
1 34 58 0
1 -34 -58 0
4 34 59 0
4 -34 -59 0
4 35 36 0
4 -35 -36 0
4 35 37 0
4 -35 -37 0
8 35 40 0
8 -35 -40 0
3 35 41 0
3 -35 -41 0
7 35 43 0
7 -35 -43 0
6 35 45 0
6 -35 -45 0
10 35 49 0
10 -35 -49 0
7 35 50 0
7 -35 -50 0
9 35 51 0
9 -35 -51 0
7 35 52 0
7 -35 -52 0
4 35 54 0
4 -35 -54 0
7 35 58 0
7 -35 -58 0
1 36 37 0
1 -36 -37 0
6 36 43 0
6 -36 -43 0
9 36 49 0
9 -36 -49 0
7 36 50 0
7 -36 -50 0
7 36 52 0
7 -36 -52 0
6 36 54 0
6 -36 -54 0
5 37 39 0
5 -37 -39 0
4 37 42 0
4 -37 -42 0
8 37 43 0
8 -37 -43 0
9 37 44 0
9 -37 -44 0
7 37 47 0
7 -37 -47 0
2 37 49 0
2 -37 -49 0
1 37 52 0
1 -37 -52 0
1 37 56 0
1 -37 -56 0
7 38 40 0
7 -38 -40 0
2 38 46 0
2 -38 -46 0
7 38 53 0
7 -38 -53 0
8 38 54 0
8 -38 -54 0
6 38 55 0
6 -38 -55 0
1 38 57 0
1 -38 -57 0
1 38 60 0
1 -38 -60 0
4 39 40 0
4 -39 -40 0
3 39 43 0
3 -39 -43 0
7 39 53 0
7 -39 -53 0
9 39 54 0
9 -39 -54 0
2 39 55 0
2 -39 -55 0
4 39 56 0
4 -39 -56 0
7 39 60 0
7 -39 -60 0
9 40 41 0
9 -40 -41 0
7 40 45 0
7 -40 -45 0
4 40 47 0
4 -40 -47 0
9 40 50 0
9 -40 -50 0
2 40 51 0
2 -40 -51 0
2 40 59 0
2 -40 -59 0
6 41 42 0
6 -41 -42 0
9 41 43 0
9 -41 -43 0
7 41 46 0
7 -41 -46 0
10 41 51 0
10 -41 -51 0
2 41 57 0
2 -41 -57 0
4 41 58 0
4 -41 -58 0
8 42 45 0
8 -42 -45 0
9 42 47 0
9 -42 -47 0
6 42 48 0
6 -42 -48 0
8 42 50 0
8 -42 -50 0
10 42 60 0
10 -42 -60 0
3 43 47 0
3 -43 -47 0
10 43 48 0
10 -43 -48 0
6 43 53 0
6 -43 -53 0
10 43 55 0
10 -43 -55 0
5 44 45 0
5 -44 -45 0
6 44 46 0
6 -44 -46 0
10 44 49 0
10 -44 -49 0
8 44 51 0
8 -44 -51 0
9 44 53 0
9 -44 -53 0
6 44 54 0
6 -44 -54 0
7 45 50 0
7 -45 -50 0
10 45 53 0
10 -45 -53 0
10 45 54 0
10 -45 -54 0
4 45 60 0
4 -45 -60 0
9 46 49 0
9 -46 -49 0
6 46 50 0
6 -46 -50 0
7 46 52 0
7 -46 -52 0
8 46 53 0
8 -46 -53 0
8 46 54 0
8 -46 -54 0
8 46 56 0
8 -46 -56 0
3 46 57 0
3 -46 -57 0
7 46 58 0
7 -46 -58 0
5 47 48 0
5 -47 -48 0
2 47 51 0
2 -47 -51 0
8 47 52 0
8 -47 -52 0
9 47 55 0
9 -47 -55 0
9 48 51 0
9 -48 -51 0
7 48 56 0
7 -48 -56 0
5 49 51 0
5 -49 -51 0
7 49 53 0
7 -49 -53 0
6 49 58 0
6 -49 -58 0
7 50 51 0
7 -50 -51 0
6 50 53 0
6 -50 -53 0
2 50 57 0
2 -50 -57 0
6 51 52 0
6 -51 -52 0
1 51 59 0
1 -51 -59 0
8 51 60 0
8 -51 -60 0
6 52 53 0
6 -52 -53 0
9 52 59 0
9 -52 -59 0
6 53 55 0
6 -53 -55 0
2 53 57 0
2 -53 -57 0
5 53 58 0
5 -53 -58 0
6 54 55 0
6 -54 -55 0
1 54 60 0
1 -54 -60 0
9 55 56 0
9 -55 -56 0
4 56 57 0
4 -56 -57 0
7 56 59 0
7 -56 -59 0
5 56 60 0
5 -56 -60 0
2 58 59 0
2 -58 -59 0
5 59 60 0
5 -59 -60 0
